46
1000
200	2
199	2
198	3
197	1
196	2
195	2
194	2
193	4
192	2
191	2
190	4
188	1
187	1
186	3
185	4
184	5
183	3
182	2
181	3
180	4
179	3
178	3
177	2
176	5
174	1
173	3
172	1
171	2
170	5
169	1
167	6
166	3
165	2
164	1
163	1
162	4
161	3
160	2
159	3
158	2
156	3
155	2
154	1
153	1
152	4
150	4
